%%% static parameters %%%
timespan = 1;
Fact = [4];
Distr1 = [15];
Distr2 = [20];
Clients_N = [300];
Demand_W = [15];
Lt0 = [4];
Lt1 = [4];
SS_ = [0.85];
DS_D = [15];
K = [200];
MA = [500];
%%% dynamic parameters %%%
lost_ratio_sales_ret_th = 0.037386419584731836;
lost_ratio_sales_ret_w = 97;
lost_ratio_sales_dis_th = 0.029317020520210547;
lost_ratio_sales_dis_w = 78;
lost_ratio_sales_fac_th = 0.03313977283225211;
lost_ratio_sales_fac_w = 13;
stock_customer_MA_mean_relative_th = 0.22500130696764098;
stock_customer_MA_mean_relative_w = 72;
stock_distributor_MA_mean_relative_th = 0.15949606167792985;
stock_distributor_MA_mean_relative_w = 18;
stock_retailer_MA_mean_relative_th = 0.939874708616398;
stock_retailer_MA_mean_relative_w = 91;
stock_factory_MA_mean_relative_th = 0.36904540869521263;
stock_factory_MA_mean_relative_w = 73;
